c File: flat50_3_0.col
c
c SOURCE: Joseph Culberson (joe@cs.ualberta.ca)
c DESCRIPTION: Quasi-random coloring problem
c              generated with flatness = 0
c                             probability = 0.139
c                             known coloring = 3
c                             random seed = 1461
c              Creation Date:  Tue Jun  9 12:09:55 1998
c Maximum degree = 8 Minimum degree = 1
c p edge 50 115
c cnf created by edge2cnf
p cnf 150 545
-1 -2 0
-1 -3 0
-2 -3 0
1 2 3 0
-4 -5 0
-4 -6 0
-5 -6 0
4 5 6 0
-7 -8 0
-7 -9 0
-8 -9 0
7 8 9 0
-10 -11 0
-10 -12 0
-11 -12 0
10 11 12 0
-13 -14 0
-13 -15 0
-14 -15 0
13 14 15 0
-16 -17 0
-16 -18 0
-17 -18 0
16 17 18 0
-19 -20 0
-19 -21 0
-20 -21 0
19 20 21 0
-22 -23 0
-22 -24 0
-23 -24 0
22 23 24 0
-25 -26 0
-25 -27 0
-26 -27 0
25 26 27 0
-28 -29 0
-28 -30 0
-29 -30 0
28 29 30 0
-31 -32 0
-31 -33 0
-32 -33 0
31 32 33 0
-34 -35 0
-34 -36 0
-35 -36 0
34 35 36 0
-37 -38 0
-37 -39 0
-38 -39 0
37 38 39 0
-40 -41 0
-40 -42 0
-41 -42 0
40 41 42 0
-43 -44 0
-43 -45 0
-44 -45 0
43 44 45 0
-46 -47 0
-46 -48 0
-47 -48 0
46 47 48 0
-49 -50 0
-49 -51 0
-50 -51 0
49 50 51 0
-52 -53 0
-52 -54 0
-53 -54 0
52 53 54 0
-55 -56 0
-55 -57 0
-56 -57 0
55 56 57 0
-58 -59 0
-58 -60 0
-59 -60 0
58 59 60 0
-61 -62 0
-61 -63 0
-62 -63 0
61 62 63 0
-64 -65 0
-64 -66 0
-65 -66 0
64 65 66 0
-67 -68 0
-67 -69 0
-68 -69 0
67 68 69 0
-70 -71 0
-70 -72 0
-71 -72 0
70 71 72 0
-73 -74 0
-73 -75 0
-74 -75 0
73 74 75 0
-76 -77 0
-76 -78 0
-77 -78 0
76 77 78 0
-79 -80 0
-79 -81 0
-80 -81 0
79 80 81 0
-82 -83 0
-82 -84 0
-83 -84 0
82 83 84 0
-85 -86 0
-85 -87 0
-86 -87 0
85 86 87 0
-88 -89 0
-88 -90 0
-89 -90 0
88 89 90 0
-91 -92 0
-91 -93 0
-92 -93 0
91 92 93 0
-94 -95 0
-94 -96 0
-95 -96 0
94 95 96 0
-97 -98 0
-97 -99 0
-98 -99 0
97 98 99 0
-100 -101 0
-100 -102 0
-101 -102 0
100 101 102 0
-103 -104 0
-103 -105 0
-104 -105 0
103 104 105 0
-106 -107 0
-106 -108 0
-107 -108 0
106 107 108 0
-109 -110 0
-109 -111 0
-110 -111 0
109 110 111 0
-112 -113 0
-112 -114 0
-113 -114 0
112 113 114 0
-115 -116 0
-115 -117 0
-116 -117 0
115 116 117 0
-118 -119 0
-118 -120 0
-119 -120 0
118 119 120 0
-121 -122 0
-121 -123 0
-122 -123 0
121 122 123 0
-124 -125 0
-124 -126 0
-125 -126 0
124 125 126 0
-127 -128 0
-127 -129 0
-128 -129 0
127 128 129 0
-130 -131 0
-130 -132 0
-131 -132 0
130 131 132 0
-133 -134 0
-133 -135 0
-134 -135 0
133 134 135 0
-136 -137 0
-136 -138 0
-137 -138 0
136 137 138 0
-139 -140 0
-139 -141 0
-140 -141 0
139 140 141 0
-142 -143 0
-142 -144 0
-143 -144 0
142 143 144 0
-145 -146 0
-145 -147 0
-146 -147 0
145 146 147 0
-148 -149 0
-148 -150 0
-149 -150 0
148 149 150 0
-100 -1 0
-101 -2 0
-102 -3 0
-109 -1 0
-110 -2 0
-111 -3 0
-133 -1 0
-134 -2 0
-135 -3 0
-70 -4 0
-71 -5 0
-72 -6 0
-76 -4 0
-77 -5 0
-78 -6 0
-142 -4 0
-143 -5 0
-144 -6 0
-97 -7 0
-98 -8 0
-99 -9 0
-121 -7 0
-122 -8 0
-123 -9 0
-85 -10 0
-86 -11 0
-87 -12 0
-97 -10 0
-98 -11 0
-99 -12 0
-139 -10 0
-140 -11 0
-141 -12 0
-55 -13 0
-56 -14 0
-57 -15 0
-73 -13 0
-74 -14 0
-75 -15 0
-76 -13 0
-77 -14 0
-78 -15 0
-100 -13 0
-101 -14 0
-102 -15 0
-103 -13 0
-104 -14 0
-105 -15 0
-112 -13 0
-113 -14 0
-114 -15 0
-115 -13 0
-116 -14 0
-117 -15 0
-55 -16 0
-56 -17 0
-57 -18 0
-79 -16 0
-80 -17 0
-81 -18 0
-85 -16 0
-86 -17 0
-87 -18 0
-112 -16 0
-113 -17 0
-114 -18 0
-127 -16 0
-128 -17 0
-129 -18 0
-136 -16 0
-137 -17 0
-138 -18 0
-61 -19 0
-62 -20 0
-63 -21 0
-94 -19 0
-95 -20 0
-96 -21 0
-100 -19 0
-101 -20 0
-102 -21 0
-112 -19 0
-113 -20 0
-114 -21 0
-127 -19 0
-128 -20 0
-129 -21 0
-142 -19 0
-143 -20 0
-144 -21 0
-106 -22 0
-107 -23 0
-108 -24 0
-109 -22 0
-110 -23 0
-111 -24 0
-115 -22 0
-116 -23 0
-117 -24 0
-136 -22 0
-137 -23 0
-138 -24 0
-61 -25 0
-62 -26 0
-63 -27 0
-82 -25 0
-83 -26 0
-84 -27 0
-94 -25 0
-95 -26 0
-96 -27 0
-103 -25 0
-104 -26 0
-105 -27 0
-133 -25 0
-134 -26 0
-135 -27 0
-52 -28 0
-53 -29 0
-54 -30 0
-82 -28 0
-83 -29 0
-84 -30 0
-103 -28 0
-104 -29 0
-105 -30 0
-127 -28 0
-128 -29 0
-129 -30 0
-61 -31 0
-62 -32 0
-63 -33 0
-82 -31 0
-83 -32 0
-84 -33 0
-88 -31 0
-89 -32 0
-90 -33 0
-91 -31 0
-92 -32 0
-93 -33 0
-103 -31 0
-104 -32 0
-105 -33 0
-64 -34 0
-65 -35 0
-66 -36 0
-112 -34 0
-113 -35 0
-114 -36 0
-118 -34 0
-119 -35 0
-120 -36 0
-55 -37 0
-56 -38 0
-57 -39 0
-91 -37 0
-92 -38 0
-93 -39 0
-109 -37 0
-110 -38 0
-111 -39 0
-124 -37 0
-125 -38 0
-126 -39 0
-76 -40 0
-77 -41 0
-78 -42 0
-106 -40 0
-107 -41 0
-108 -42 0
-145 -40 0
-146 -41 0
-147 -42 0
-52 -43 0
-53 -44 0
-54 -45 0
-85 -43 0
-86 -44 0
-87 -45 0
-91 -43 0
-92 -44 0
-93 -45 0
-94 -43 0
-95 -44 0
-96 -45 0
-148 -43 0
-149 -44 0
-150 -45 0
-58 -46 0
-59 -47 0
-60 -48 0
-61 -46 0
-62 -47 0
-63 -48 0
-97 -46 0
-98 -47 0
-99 -48 0
-133 -46 0
-134 -47 0
-135 -48 0
-136 -46 0
-137 -47 0
-138 -48 0
-142 -46 0
-143 -47 0
-144 -48 0
-145 -46 0
-146 -47 0
-147 -48 0
-82 -49 0
-83 -50 0
-84 -51 0
-91 -49 0
-92 -50 0
-93 -51 0
-94 -49 0
-95 -50 0
-96 -51 0
-100 -49 0
-101 -50 0
-102 -51 0
-109 -49 0
-110 -50 0
-111 -51 0
-118 -49 0
-119 -50 0
-120 -51 0
-142 -49 0
-143 -50 0
-144 -51 0
-145 -49 0
-146 -50 0
-147 -51 0
-106 -52 0
-107 -53 0
-108 -54 0
-112 -52 0
-113 -53 0
-114 -54 0
-145 -52 0
-146 -53 0
-147 -54 0
-106 -55 0
-107 -56 0
-108 -57 0
-133 -55 0
-134 -56 0
-135 -57 0
-109 -58 0
-110 -59 0
-111 -60 0
-121 -58 0
-122 -59 0
-123 -60 0
-139 -58 0
-140 -59 0
-141 -60 0
-142 -58 0
-143 -59 0
-144 -60 0
-115 -61 0
-116 -62 0
-117 -63 0
-121 -61 0
-122 -62 0
-123 -63 0
-142 -61 0
-143 -62 0
-144 -63 0
-145 -61 0
-146 -62 0
-147 -63 0
-136 -67 0
-137 -68 0
-138 -69 0
-130 -70 0
-131 -71 0
-132 -72 0
-136 -70 0
-137 -71 0
-138 -72 0
-145 -70 0
-146 -71 0
-147 -72 0
-127 -76 0
-128 -77 0
-129 -78 0
-130 -76 0
-131 -77 0
-132 -78 0
-109 -79 0
-110 -80 0
-111 -81 0
-121 -79 0
-122 -80 0
-123 -81 0
-130 -79 0
-131 -80 0
-132 -81 0
-142 -82 0
-143 -83 0
-144 -84 0
-148 -82 0
-149 -83 0
-150 -84 0
-118 -85 0
-119 -86 0
-120 -87 0
-130 -85 0
-131 -86 0
-132 -87 0
-103 -88 0
-104 -89 0
-105 -90 0
-127 -88 0
-128 -89 0
-129 -90 0
-142 -88 0
-143 -89 0
-144 -90 0
-124 -91 0
-125 -92 0
-126 -93 0
-103 -94 0
-104 -95 0
-105 -96 0
-139 -94 0
-140 -95 0
-141 -96 0
-118 -97 0
-119 -98 0
-120 -99 0
-103 -100 0
-104 -101 0
-105 -102 0
-112 -100 0
-113 -101 0
-114 -102 0
-124 -100 0
-125 -101 0
-126 -102 0
-139 -100 0
-140 -101 0
-141 -102 0
